c User generated cnf file
p cnf 7 40
5 4 -2 0 
2 -5 6 0 
6 -6 6 0 
4 7 -7 0 
5 5 -4 0 
7 3 -7 0 
4 -4 3 0 
5 6 -4 0 
2 -3 1 0 
7 5 -5 0 
6 -5 1 0 
4 5 -6 0 
7 7 -4 0 
4 1 -3 0 
4 -6 7 0 
4 -3 4 0 
7 4 -7 0 
4 -1 2 0 
1 -3 1 0 
2 4 -6 0 
4 -4 3 0 
7 -2 3 0 
3 -6 7 0 
1 4 -5 0 
2 4 -6 0 
2 -1 5 0 
5 2 -6 0 
5 -5 7 0 
2 -4 7 0 
3 6 -1 0 
6 6 -7 0 
2 5 -4 0 
2 2 -4 0 
7 6 -1 0 
4 7 -7 0 
6 1 -4 0 
3 1 -3 0 
5 4 -7 0 
1 -1 7 0 
3 -7 5 0 
